
Gurobi 10.0.1 (linux64) logging started Sun Nov 26 15:46:56 2023

Set parameter LogFile to value "ArtificialInstance/ExperimentV2/S2T4K2/AdRo/gurobiDoRo59.txt"
Gurobi Optimizer version 10.0.1 build v10.0.1rc0 (linux64)

CPU model: AMD EPYC 7H12 64-Core Processor, instruction set [SSE2|AVX|AVX2]
Thread count: 128 physical cores, 128 logical processors, using up to 32 threads

Academic license 656792 - for non-commercial use only - registered to b.___@student.vu.nl
Optimize a model with 6812 rows, 6490 columns and 25127 nonzeros
Model fingerprint: 0xa653e7b1
Variable types: 1 continuous, 6489 integer (6489 binary)
Coefficient statistics:
  Matrix range     [1e+00, 4e+01]
  Objective range  [1e+00, 2e+01]
  Bounds range     [1e+00, 1e+00]
  RHS range        [1e+00, 1e+00]
Presolve removed 3265 rows and 3040 columns
Presolve time: 0.07s
Presolved: 3547 rows, 3450 columns, 13419 nonzeros
Variable types: 1 continuous, 3449 integer (3449 binary)
Found heuristic solution: objective 86.9369131

Root relaxation: objective 7.969874e+01, 925 iterations, 0.02 seconds (0.01 work units)

    Nodes    |    Current Node    |     Objective Bounds      |     Work
 Expl Unexpl |  Obj  Depth IntInf | Incumbent    BestBd   Gap | It/Node Time

     0     0   79.69874    0    3   86.93691   79.69874  8.33%     -    0s
H    0     0                      79.6987435   79.69874  0.00%     -    0s
     0     0   79.69874    0    3   79.69874   79.69874  0.00%     -    0s

Explored 1 nodes (925 simplex iterations) in 0.14 seconds (0.09 work units)
Thread count was 32 (of 128 available processors)

Solution count 2: 79.6987 86.9369 

Optimal solution found (tolerance 1.00e-04)
Best objective 7.969874353615e+01, best bound 7.969874353615e+01, gap 0.0000%
